(set-info :smt-lib-version 2.6)
(set-logic UFLIA)
(set-info :source |
Generated by: Geoff Sutcliffe
Generated on: 2026-03-11
Generator: TPTPWorld
Application: Benchmarking automated theorem provers
Time limit: 120.0

These benchmarks are translations from the TPTP Library (Thousands of
Problems for Theorem Provers), see http://www.cs.miami.edu/~tptp/

The TPTP is maintained by Geoff Sutcliffe, and he contributed this
selection of benchmarks to SMT-LIB.  They were exported from the
v9.2.1 realease of TPTP.
|)
(set-info :category "industrial")
(set-info :status "unknown")
; SZS status Success
(declare-sort $$unsorted 0)
(declare-sort tptp.array 0)
(declare-fun tptp.read (tptp.array Int) Int)
(declare-fun tptp.write (tptp.array Int Int) tptp.array)
(assert (forall ((A tptp.array) (I Int) (V Int)) (= (tptp.read (tptp.write A I V) I) V)))
(assert (forall ((A tptp.array) (I Int) (J Int) (V Int)) (or (= I J) (= (tptp.read (tptp.write A I V) J) (tptp.read A J)))))
(assert (forall ((A tptp.array) (B tptp.array)) (=> (forall ((I Int)) (= (tptp.read A I) (tptp.read B I))) (= A B))))
(declare-fun tptp.init (Int) tptp.array)
(assert (forall ((V Int) (I Int)) (= (tptp.read (tptp.init V) I) V)))
(declare-fun tptp.max (tptp.array Int) Int)
(assert (forall ((A tptp.array) (N Int) (W Int)) (=> (and (forall ((I Int)) (=> (and (> N I) (>= I 0)) (<= (tptp.read A I) W))) (exists ((I Int)) (and (> N I) (>= I 0) (= (tptp.read A I) W)))) (= (tptp.max A N) W))))
(declare-fun tptp.sorted (tptp.array Int) Bool)
(assert (forall ((A tptp.array) (N Int)) (= (tptp.sorted A N) (forall ((I Int) (J Int)) (=> (and (<= 0 I) (< I N) (< I J) (< J N)) (<= (tptp.read A I) (tptp.read A J)))))))
(declare-fun tptp.inRange (tptp.array Int Int) Bool)
(assert (forall ((A tptp.array) (R Int) (N Int)) (= (tptp.inRange A R N) (forall ((I Int)) (let ((_let_1 (tptp.read A I))) (=> (and (> N I) (>= I 0)) (and (>= R _let_1) (>= _let_1 0))))))))
(declare-fun tptp.distinct (tptp.array Int) Bool)
(assert (forall ((A tptp.array) (N Int)) (= (tptp.distinct A N) (forall ((I Int) (J Int)) (=> (and (> N I) (> N J) (>= J 0) (>= I 0)) (=> (= (tptp.read A I) (tptp.read A J)) (= I J)))))))
(declare-fun tptp.rev (tptp.array Int) tptp.array)
(assert (forall ((A tptp.array) (B tptp.array) (N Int)) (=> (forall ((I Int)) (let ((_let_1 (tptp.read B I))) (or (and (>= I 0) (> N I) (= _let_1 (tptp.read A (- N (+ I 1))))) (and (or (> 0 I) (>= I N)) (= _let_1 (tptp.read A I)))))) (= (tptp.rev A N) B))))
(assert (not (not (forall ((A tptp.array) (N Int)) (=> (tptp.sorted A N) (not (tptp.sorted (tptp.rev A N) N)))))))
(check-sat)
